files/upTests/_muti_dimensional/setOfInts/2d_setsOfInts/0001.eprime.solution
language ESSENCE' 1.0
$ minion Nodes: 4
$ minion TotalTime: 0.001188
$ Savile Row TotalTime: 0.296
letting x_ExplicitVarSize_tuple2 be [[[6, 6;int(1..2)], 
[6, 7;int(1..2)];int(1..2)], 
[[6, 7;int(1..2)], 
[6, 8;int(1..2)];int(1..2)];int(1..2)]
letting x_ExplicitVarSize_tuple1 be [[[0, 1;int(1..2)], 
[0, 1;int(1..2)];int(1..2)], 
[[1, 1;int(1..2)], 
[0, 1;int(1..2)];int(1..2)];int(1..2)]
